2 100 1072
6 6 8 6 5 1 3 6 7 4
2 2
7 5
5 6
0 35.0 35.0 0.0 0.0 0 230
2 41.0 49.0 10.0 10.0 130 201 33 0 1 0 1 0 0 0 1 0 0
3 35.0 17.0 10.0 7.0 20 89 71 1 0 0 0 0 0 0 0 0 0
4 55.0 45.0 10.0 13.0 106 135 51 1 0 0 0 1 0 0 0 1 0
5 55.0 20.0 10.0 19.0 71 195 56 0 1 0 0 1 0 1 0 1 0
6 15.0 30.0 10.0 26.0 20 107 3 0 1 0 0 0 0 0 1 0 0
7 25.0 30.0 10.0 3.0 54 153 56 0 0 1 1 0 0 0 0 0 0
8 20.0 50.0 10.0 5.0 66 105 95 1 0 0 0 0 0 1 0 1 0
9 10.0 43.0 10.0 9.0 61 138 81 0 0 0 0 0 0 1 0 1 1
10 55.0 60.0 10.0 16.0 53 150 74 0 0 0 0 0 0 1 0 1 0
11 30.0 60.0 10.0 16.0 101 156 10 0 0 0 0 0 1 0 0 0 0
12 20.0 65.0 10.0 12.0 33 152 1 1 0 0 0 0 0 0 0 0 0
13 50.0 35.0 10.0 19.0 38 97 40 1 0 1 0 0 0 1 0 0 0
14 30.0 25.0 10.0 23.0 70 208 68 0 0 0 0 0 0 0 1 0 0
15 15.0 10.0 10.0 20.0 32 137 2 0 0 1 0 0 0 0 0 0 0
16 30.0 5.0 10.0 8.0 30 154 28 0 0 0 0 0 1 0 0 0 0
17 10.0 20.0 10.0 19.0 54 105 23 0 1 1 0 0 0 1 1 0 1
18 5.0 30.0 10.0 2.0 51 189 89 0 0 0 0 0 0 1 0 0 0
19 20.0 40.0 10.0 12.0 77 106 14 0 0 1 0 0 1 0 0 0 1
20 15.0 60.0 10.0 17.0 53 108 86 1 0 1 0 0 1 0 0 0 0
21 45.0 65.0 10.0 9.0 109 152 44 1 0 0 1 0 0 0 0 0 0
22 45.0 20.0 10.0 11.0 37 96 4 1 0 0 0 0 0 0 0 0 0
23 45.0 10.0 10.0 18.0 59 144 24 0 0 0 0 0 0 0 0 1 0
24 55.0 5.0 10.0 29.0 36 155 60 0 0 0 0 0 1 0 0 0 0
25 65.0 35.0 10.0 3.0 118 190 12 0 0 0 0 1 0 0 0 0 1
26 65.0 20.0 10.0 6.0 47 186 73 1 0 0 1 0 0 0 0 0 0
27 45.0 30.0 10.0 17.0 117 156 49 0 0 1 1 0 0 0 1 0 1
28 35.0 40.0 10.0 16.0 5 156 39 1 0 1 1 0 0 0 0 1 0
29 41.0 37.0 10.0 16.0 8 79 68 1 0 0 0 0 0 0 0 0 0
30 64.0 42.0 10.0 9.0 37 98 3 0 0 0 0 0 0 0 0 1 1
31 40.0 60.0 10.0 21.0 28 123 31 1 0 0 0 0 0 0 0 0 0
32 31.0 52.0 10.0 27.0 24 85 92 0 0 0 0 0 0 0 0 1 0
33 35.0 69.0 10.0 23.0 116 175 88 0 1 1 0 0 0 0 0 0 0
34 53.0 52.0 10.0 11.0 24 179 17 0 0 0 0 1 0 0 1 1 0
35 65.0 55.0 10.0 14.0 100 143 9 0 0 0 1 1 0 0 0 0 0
36 63.0 65.0 10.0 8.0 50 178 31 0 0 0 0 0 1 0 0 0 0
37 2.0 60.0 10.0 5.0 41 178 53 0 0 1 0 0 0 0 0 1 0
38 20.0 20.0 10.0 8.0 117 160 22 1 1 0 0 0 0 0 0 1 0
39 5.0 5.0 10.0 16.0 42 145 50 0 0 0 0 0 1 0 0 0 0
40 60.0 12.0 10.0 31.0 33 186 18 0 0 0 0 0 0 0 0 1 0
41 40.0 25.0 10.0 9.0 51 128 99 1 0 0 0 0 0 0 1 0 1
42 42.0 7.0 10.0 5.0 44 159 17 1 0 0 0 0 0 0 0 1 1
43 24.0 12.0 10.0 5.0 25 172 9 1 0 0 0 0 0 0 1 1 1
44 23.0 3.0 10.0 7.0 115 158 99 1 0 1 0 0 0 0 0 0 0
45 11.0 14.0 10.0 18.0 31 138 84 0 0 1 0 1 0 0 0 0 0
46 6.0 38.0 10.0 16.0 29 189 93 1 0 0 1 0 0 0 0 0 0
47 2.0 48.0 10.0 1.0 93 150 96 0 0 0 0 0 1 0 0 1 1
48 8.0 56.0 10.0 27.0 34 116 32 1 0 0 0 0 0 0 0 1 1
49 13.0 52.0 10.0 36.0 125 192 21 0 0 0 1 0 0 1 1 0 0
50 6.0 68.0 10.0 30.0 93 132 45 0 0 0 0 0 0 0 1 1 0
51 47.0 47.0 10.0 13.0 105 152 62 0 0 0 0 0 1 0 0 0 0
52 49.0 58.0 10.0 10.0 66 119 90 0 1 1 0 1 0 1 0 0 0
53 27.0 43.0 10.0 9.0 25 88 38 0 0 0 0 0 0 0 0 1 0
54 37.0 31.0 10.0 14.0 62 137 60 0 0 1 0 0 0 0 1 1 1
55 57.0 29.0 10.0 18.0 121 168 75 1 0 0 0 0 0 0 1 0 1
56 63.0 23.0 10.0 2.0 70 189 80 1 0 0 0 0 0 0 0 0 1
57 53.0 12.0 10.0 6.0 81 188 84 0 1 0 1 0 0 0 0 1 0
58 32.0 12.0 10.0 7.0 78 133 8 0 0 1 0 1 1 0 0 0 0
59 36.0 26.0 10.0 18.0 79 210 56 0 0 1 0 0 0 0 1 1 0
60 21.0 24.0 10.0 28.0 17 123 9 0 1 1 1 0 0 0 0 1 0
61 17.0 34.0 10.0 3.0 130 201 64 0 0 0 0 0 1 0 0 0 0
62 12.0 24.0 10.0 13.0 59 102 40 1 0 1 0 0 0 1 0 0 0
63 24.0 58.0 10.0 19.0 25 164 85 1 0 0 0 1 0 0 1 1 0
64 27.0 69.0 10.0 10.0 34 112 10 0 0 0 0 0 1 0 0 1 1
65 15.0 77.0 10.0 9.0 46 165 27 0 0 0 1 0 0 0 0 0 0
66 62.0 77.0 10.0 20.0 49 170 22 0 0 0 0 0 0 0 1 0 0
67 49.0 73.0 10.0 25.0 77 179 68 0 0 0 0 0 1 0 0 0 0
68 67.0 5.0 10.0 25.0 43 150 55 1 1 0 1 0 0 0 0 0 1
69 56.0 39.0 10.0 36.0 82 198 94 0 0 0 0 0 1 0 0 0 0
70 37.0 47.0 10.0 6.0 12 142 67 1 0 0 0 0 0 1 1 1 0
71 37.0 56.0 10.0 5.0 21 198 95 1 0 1 0 0 0 0 0 0 0
72 57.0 68.0 10.0 15.0 57 106 90 0 0 0 0 0 0 1 0 0 0
73 47.0 16.0 10.0 25.0 22 110 87 0 0 0 1 1 0 0 0 0 0
74 44.0 17.0 10.0 9.0 60 105 30 0 0 1 0 0 0 0 0 0 0
75 46.0 13.0 10.0 8.0 73 195 26 1 0 0 0 1 1 1 0 0 1
76 49.0 11.0 10.0 18.0 46 101 29 0 0 1 0 0 0 0 0 0 0
77 49.0 42.0 10.0 13.0 36 119 5 1 0 0 0 0 0 1 1 1 0
78 53.0 43.0 10.0 14.0 65 200 87 0 0 0 0 1 0 0 0 0 0
79 61.0 52.0 10.0 3.0 43 158 10 0 0 1 0 0 0 0 0 1 0
80 57.0 48.0 10.0 23.0 58 135 49 0 1 1 0 0 0 0 1 0 0
81 56.0 37.0 10.0 6.0 69 198 54 0 0 0 0 0 0 0 1 0 0
82 55.0 54.0 10.0 26.0 87 110 96 0 0 0 0 1 0 0 1 0 0
83 15.0 47.0 10.0 16.0 28 91 46 0 0 0 1 0 1 1 1 1 0
84 14.0 37.0 10.0 11.0 21 97 15 0 0 1 0 0 0 0 1 0 0
85 11.0 31.0 10.0 7.0 68 143 71 0 0 0 0 0 1 0 0 0 0
86 16.0 22.0 10.0 41.0 74 117 91 1 0 0 0 0 1 0 1 0 0
87 4.0 18.0 10.0 35.0 79 118 33 0 0 1 0 0 0 0 0 0 0
88 28.0 18.0 10.0 26.0 84 111 11 0 1 1 0 1 0 0 0 0 0
89 26.0 52.0 10.0 9.0 24 133 45 1 1 1 0 0 1 1 0 0 0
90 26.0 35.0 10.0 15.0 128 211 51 0 0 0 0 1 0 0 1 0 1
91 31.0 67.0 10.0 3.0 76 123 56 0 0 0 0 0 1 0 0 0 0
92 15.0 19.0 10.0 1.0 130 194 45 0 0 0 0 1 0 0 0 0 0
93 22.0 22.0 10.0 2.0 18 181 83 0 0 0 1 0 0 0 1 1 0
94 18.0 24.0 10.0 22.0 41 199 29 0 1 1 1 1 0 0 0 0 1
95 26.0 27.0 10.0 27.0 88 121 50 0 1 0 0 0 0 0 0 0 0
96 25.0 24.0 10.0 20.0 14 83 20 0 0 0 1 0 0 1 0 1 1
97 22.0 27.0 10.0 11.0 119 160 59 0 0 0 0 0 1 0 0 0 0
98 25.0 21.0 10.0 12.0 122 153 40 0 0 0 0 0 1 1 0 0 0
99 19.0 21.0 10.0 10.0 32 93 38 0 0 0 0 0 1 1 0 0 1
100 20.0 26.0 10.0 9.0 38 137 74 0 1 0 0 1 0 0 1 0 0
101 18.0 18.0 10.0 17.0 28 195 15 1 1 0 1 0 0 0 0 0 0